data;


param d:= 100;
param r:=5;
param p:=0.820000;
param M:=1000;
param U:=
         1         1        1.453083e-01
         2         1        8.588845e-02
         3         1        2.986484e-01
         4         1        1.436110e+00
         5         1        6.503822e-01
         6         1       -1.257563e+00
         7         1        6.299778e-01
         8         1        4.878770e-01
         9         1        3.998925e-02
        10         1       -7.090085e-02
        11         1       -1.105051e+00
        12         1        8.941576e-01
        13         1       -1.312983e+00
        14         1        1.237948e+00
        15         1        8.353278e-01
        16         1        1.124493e+00
        17         1       -7.459555e-02
        18         1        1.542889e+00
        19         1       -2.184223e+00
        20         1       -2.829418e-01
        21         1       -1.870630e+00
        22         1        1.015059e+00
        23         1       -4.791183e-01
        24         1       -5.836659e-01
        25         1        9.619578e-01
        26         1        5.548096e-01
        27         1       -6.856909e-01
        28         1       -9.993565e-01
        29         1       -4.164901e-01
        30         1       -1.551439e-01
        31         1       -9.324984e-01
        32         1       -1.321679e+00
        33         1       -1.015680e+00
        34         1       -5.898133e-01
        35         1        1.824291e-02
        36         1       -4.812292e-01
        37         1       -5.487228e-01
        38         1        4.096364e-01
        39         1       -5.822747e-01
        40         1       -1.927430e+00
        41         1       -2.287354e-01
        42         1        5.084096e-01
        43         1        1.833780e+00
        44         1        8.442624e-01
        45         1        6.876372e-01
        46         1       -8.669202e-01
        47         1        1.857020e+00
        48         1       -2.115240e-01
        49         1        1.465218e+00
        50         1        6.392191e-01
        51         1        1.613642e+00
        52         1        3.290032e-01
        53         1        5.313962e-01
        54         1       -8.096465e-01
        55         1        6.584758e-01
        56         1       -3.720342e-01
        57         1        1.698855e+00
        58         1       -1.688531e+00
        59         1        4.480746e-01
        60         1        1.146866e+00
        61         1        1.069985e+00
        62         1        1.328189e+00
        63         1       -5.006502e-01
        64         1        6.688976e-01
        65         1       -2.348185e-02
        66         1        8.313979e-01
        67         1        6.230549e-01
        68         1        2.873375e-01
        69         1       -3.273605e-01
        70         1        4.017376e-01
        71         1       -7.068798e-01
        72         1       -4.533460e-01
        73         1       -1.630021e-01
        74         1        1.465907e-01
        75         1        1.991657e+00
        76         1        4.780934e-01
        77         1        3.190759e-01
        78         1       -3.564625e-01
        79         1        7.839001e-01
        80         1        5.738276e-01
        81         1       -3.484874e-01
        82         1       -4.540378e-01
        83         1        1.172361e+00
        84         1       -8.254358e-01
        85         1       -9.429418e-01
        86         1        4.184349e-01
        87         1        2.504201e-02
        88         1        8.945474e-01
        89         1        1.648775e+00
        90         1        8.301254e-01
        91         1       -1.919278e-01
        92         1       -1.868127e+00
        93         1        5.408435e-01
        94         1        6.127165e-01
        95         1        1.030675e+00
        96         1        8.067811e-01
        97         1        1.086627e+00
        98         1        1.532797e+00
        99         1        1.628438e+00
       100         1       -2.133135e-01
         1         2       -4.168756e-01
         2         2       -1.039834e-01
         3         2        5.365571e-01
         4         2       -4.063412e-01
         5         2        3.334413e-01
         6         2        3.511707e-01
         7         2       -2.118274e-01
         8         2        6.497314e-02
         9         2       -2.680723e+00
        10         2       -2.051535e+00
        11         2        5.328750e-01
        12         2       -7.020395e-01
        13         2       -1.043926e+00
        14         2       -1.399272e+00
        15         2       -1.576689e+00
        16         2       -4.389467e-02
        17         2       -5.005256e-01
        18         2        1.701915e-01
        19         2       -6.370994e-01
        20         2       -2.248018e-01
        21         2        1.613645e-01
        22         2        7.672886e-01
        23         2        7.352121e-01
        24         2        7.072958e-01
        25         2       -2.248974e-01
        26         2       -7.185473e-02
        27         2        3.255011e-01
        28         2        2.988522e-01
        29         2       -2.414891e+00
        30         2        2.041391e+00
        31         2        1.086815e-01
        32         2       -1.872188e+00
        33         2        5.923388e-01
        34         2        9.149259e-01
        35         2       -1.475921e+00
        36         2       -6.626416e-01
        37         2       -6.799287e-01
        38         2       -1.273956e-01
        39         2       -7.662822e-01
        40         2       -1.047625e+00
        41         2        2.841070e-01
        42         2       -2.730420e-01
        43         2        5.807901e-01
        44         2        1.278442e-01
        45         2       -8.596150e-01
        46         2       -1.977439e-01
        47         2        5.892959e-01
        48         2        7.472690e-01
        49         2       -6.686466e-03
        50         2        3.677246e-01
        51         2       -6.100046e-01
        52         2       -1.434038e-01
        53         2        8.805928e-01
        54         2        1.371066e+00
        55         2       -1.734466e-02
        56         2       -8.531524e-01
        57         2       -8.892158e-01
        58         2       -9.782892e-04
        59         2        1.208791e+00
        60         2        5.804676e-01
        61         2       -5.310226e-01
        62         2        8.576131e-01
        63         2        3.090826e-01
        64         2       -6.769817e-01
        65         2        6.893869e-01
        66         2        5.987026e-01
        67         2       -1.012582e-02
        68         2        6.204954e-01
        69         2       -1.527002e+00
        70         2        2.129090e-01
        71         2        2.299498e+00
        72         2        2.883474e-01
        73         2        6.907073e-01
        74         2       -1.824086e-01
        75         2       -6.447124e-01
        76         2       -1.560388e-01
        77         2        1.780164e+00
        78         2       -9.199075e-01
        79         2        1.040892e+00
        80         2        4.079690e-01
        81         2        2.173770e-01
        82         2       -3.769702e-01
        83         2        1.322893e+00
        84         2       -7.464035e-01
        85         2        2.633939e-03
        86         2       -5.855279e-01
        87         2       -1.363965e+00
        88         2        1.426680e-01
        89         2        1.266858e+00
        90         2       -1.674470e+00
        91         2        4.867056e-01
        92         2       -8.000619e-01
        93         2       -1.034256e+00
        94         2        1.553061e+00
        95         2       -5.336272e-01
        96         2       -1.091809e+00
        97         2        1.381608e+00
        98         2        4.390806e-01
        99         2        8.346760e-01
       100         2        1.107061e+00
         1         3        3.393637e-01
         2         3       -1.612579e+00
         3         3        1.030509e+00
         4         3       -2.272522e+00
         5         3       -9.772097e-01
         6         3       -7.338632e-01
         7         3       -5.826099e-01
         8         3        1.065404e+00
         9         3       -3.563403e-01
        10         3       -1.357414e+00
        11         3        7.145340e-02
        12         3        1.631342e+00
        13         3       -9.878534e-01
        14         3        8.322587e-01
        15         3        2.127480e-01
        16         3       -1.265430e+00
        17         3       -5.021681e-01
        18         3       -4.825551e-01
        19         3        3.429348e-01
        20         3        7.582353e-01
        21         3        1.696705e+00
        22         3       -1.274762e+00
        23         3       -1.008689e+00
        24         3       -1.405176e+00
        25         3        6.667363e-01
        26         3       -8.177239e-01
        27         3       -2.433692e-01
        28         3       -9.668618e-01
        29         3        2.304751e-01
        30         3        5.900718e-01
        31         3        5.440317e-01
        32         3       -1.490748e+00
        33         3        9.647131e-01
        34         3       -1.272483e+00
        35         3       -1.236379e+00
        36         3        9.679672e-01
        37         3       -1.913391e+00
        38         3        5.624640e-01
        39         3        6.062800e-01
        40         3        4.510405e-01
        41         3        1.781483e+00
        42         3       -1.458981e+00
        43         3       -2.873457e-01
        44         3        5.585887e-01
        45         3       -2.033147e-01
        46         3        8.308675e-01
        47         3        1.274181e+00
        48         3       -1.082304e+00
        49         3        9.539374e-01
        50         3       -1.366833e+00
        51         3        1.988248e+00
        52         3       -2.750882e-01
        53         3       -8.918681e-01
        54         3       -2.286671e+00
        55         3       -1.910891e+00
        56         3        4.030835e-01
        57         3        1.159668e+00
        58         3        2.413234e-01
        59         3       -1.372249e+00
        60         3        6.463804e-01
        61         3       -4.717751e-01
        62         3        9.388766e-01
        63         3        1.971933e-01
        64         3        9.017459e-01
        65         3        5.892337e-02
        66         3        2.347014e-02
        67         3       -3.245116e-01
        68         3       -1.152077e+00
        69         3        1.047130e+00
        70         3        1.112229e+00
        71         3        2.014561e+00
        72         3        5.747343e-01
        73         3        8.424516e-01
        74         3        2.464475e-01
        75         3        1.085487e+00
        76         3        1.694562e+00
        77         3        1.620657e-02
        78         3        2.025802e+00
        79         3        2.747266e-01
        80         3        1.869199e+00
        81         3       -1.868547e+00
        82         3       -1.041777e+00
        83         3       -1.427533e+00
        84         3       -9.147938e-03
        85         3       -7.466062e-01
        86         3       -5.898835e-01
        87         3       -1.334101e+00
        88         3       -3.252929e-01
        89         3       -1.153501e-01
        90         3        1.613488e+00
        91         3       -2.740232e+00
        92         3        1.056553e+00
        93         3       -4.632984e-01
        94         3       -1.424556e+00
        95         3       -7.719335e-01
        96         3       -2.312637e-01
        97         3       -6.055719e-01
        98         3        1.443979e+00
        99         3        2.348130e+00
       100         3       -5.993095e-01
         1         4        4.602442e-01
         2         4        9.584215e-01
         3         4       -1.060087e+00
         4         4       -1.291121e+00
         5         4       -1.611934e-02
         6         4       -1.595656e+00
         7         4        2.613881e-01
         8         4        5.410575e-01
         9         4        6.899366e-02
        10         4       -1.705560e+00
        11         4        5.182978e-01
        12         4        2.913289e-01
        13         4       -3.585591e-01
        14         4        2.730662e-01
        15         4       -3.971892e-01
        16         4        3.382391e-01
        17         4        2.737083e-02
        18         4       -4.994901e-01
        19         4       -1.546565e-01
        20         4        8.326976e-01
        21         4        1.729149e-01
        22         4       -1.542626e+00
        23         4        1.602952e-01
        24         4        8.183521e-01
        25         4        4.296766e-01
        26         4        2.385573e+00
        27         4       -1.256027e+00
        28         4       -4.109860e-01
        29         4        7.945663e-01
        30         4        6.791826e-01
        31         4       -1.003328e+00
        32         4       -2.461345e-01
        33         4        1.078055e-01
        34         4       -4.096142e-01
        35         4       -3.326706e-02
        36         4        5.476735e-01
        37         4        3.457470e-01
        38         4        1.066030e+00
        39         4       -1.067630e-01
        40         4       -8.394930e-02
        41         4       -6.218259e-01
        42         4       -1.701187e+00
        43         4        5.088083e-01
        44         4        1.996614e+00
        45         4        2.442020e-01
        46         4        9.966975e-01
        47         4       -1.260122e+00
        48         4        1.182521e-01
        49         4        8.378081e-01
        50         4        2.096215e-01
        51         4        1.106486e+00
        52         4       -6.935440e-02
        53         4        5.404767e-01
        54         4       -6.664415e-01
        55         4        1.254566e+00
        56         4        1.922000e+00
        57         4        1.242793e-01
        58         4       -1.031276e+00
        59         4       -5.240093e-01
        60         4       -2.773519e+00
        61         4        6.777943e-01
        62         4       -5.023700e-01
        63         4        7.175701e-01
        64         4       -3.139270e-01
        65         4       -8.465093e-01
        66         4       -1.821961e+00
        67         4        5.067408e-01
        68         4        2.844500e-01
        69         4        9.425371e-01
        70         4       -1.449690e+00
        71         4        4.448630e-01
        72         4        1.161750e+00
        73         4       -1.183735e+00
        74         4       -2.752102e+00
        75         4        2.751425e-01
        76         4        5.500438e-01
        77         4       -5.210935e-01
        78         4       -3.042189e-01
        79         4       -1.581109e+00
        80         4        3.187055e-01
        81         4        1.306936e+00
        82         4        1.304917e+00
        83         4       -9.794202e-02
        84         4       -1.177260e+00
        85         4        2.029110e-01
        86         4       -3.516026e-01
        87         4       -1.090446e+00
        88         4       -6.077631e-01
        89         4        1.219133e+00
        90         4        2.522878e-01
        91         4       -4.316058e-01
        92         4        9.104098e-01
        93         4        4.368939e-01
        94         4       -6.168131e-01
        95         4        6.872129e-01
        96         4        1.010171e+00
        97         4       -1.323208e+00
        98         4       -7.614719e-01
        99         4       -2.594256e-01
       100         4        2.345848e+00
         1         5        1.177706e+00
         2         5       -3.870555e-01
         3         5       -2.804651e-01
         4         5       -1.062236e+00
         5         5       -6.758040e-01
         6         5       -6.471269e-01
         7         5        7.229061e-01
         8         5        5.859623e-01
         9         5        2.527219e-02
        10         5       -1.104788e+00
        11         5       -1.275752e+00
        12         5        1.348910e+00
        13         5        1.225328e+00
        14         5        1.179067e-01
        15         5        1.777821e-01
        16         5       -1.426845e+00
        17         5       -9.239484e-01
        18         5        4.380937e-01
        19         5        4.593712e-01
        20         5       -1.541219e+00
        21         5       -1.324006e+00
        22         5        3.873024e-02
        23         5        3.265830e-01
        24         5        1.143487e+00
        25         5        6.516211e-01
        26         5       -2.133505e-01
        27         5        1.143332e+00
        28         5       -1.197599e+00
        29         5       -5.115620e-01
        30         5        7.455585e-01
        31         5       -1.455381e+00
        32         5        6.222666e-01
        33         5        1.309225e+00
        34         5       -1.107927e+00
        35         5        2.174796e+00
        36         5       -7.585093e-01
        37         5       -7.803365e-01
        38         5        4.928084e-01
        39         5       -5.239367e-02
        40         5        9.442402e-01
        41         5        1.664265e+00
        42         5       -5.952995e-01
        43         5        1.476761e+00
        44         5       -2.211150e+00
        45         5        5.435324e-01
        46         5        7.029865e-01
        47         5       -5.497570e-01
        48         5        1.708434e-02
        49         5        7.934339e-01
        50         5        1.266138e+00
        51         5       -1.245860e+00
        52         5       -5.800826e-01
        53         5        8.809431e-02
        54         5        3.554459e-02
        55         5        3.389527e-01
        56         5        5.169284e-01
        57         5       -1.236409e+00
        58         5       -1.907058e+00
        59         5       -1.109088e+00
        60         5        1.034523e+00
        61         5       -2.216845e-01
        62         5        7.733148e-01
        63         5       -2.303152e-01
        64         5        1.499380e+00
        65         5        1.527800e-01
        66         5        4.488911e-01
        67         5       -1.013832e+00
        68         5       -3.537191e-01
        69         5       -1.641604e-01
        70         5       -5.452389e-02
        71         5       -1.912666e-01
        72         5        1.206202e-01
        73         5        2.930934e-01
        74         5       -1.255903e+00
        75         5       -3.087293e-02
        76         5        7.677269e-01
        77         5        4.922791e-01
        78         5        1.160169e-01
        79         5       -3.981928e-01
        80         5       -1.777133e-01
        81         5       -8.759952e-01
        82         5        9.425663e-01
        83         5        6.108746e-02
        84         5       -3.227267e-01
        85         5        2.276418e-01
        86         5        1.623909e+00
        87         5        6.419576e-02
        88         5       -1.063426e-01
        89         5       -5.095317e-01
        90         5       -1.761729e-01
        91         5        9.764288e-02
        92         5        1.409562e+00
        93         5        1.074798e+00
        94         5       -1.138697e-01
        95         5       -8.878855e-02
        96         5       -3.456676e-01
        97         5        5.899711e-01
        98         5       -1.003140e+00
        99         5        4.357100e-01
       100         5       -1.762201e+00
;

param theta:=
    1       -5.196037e-01
    2       -1.567039e+00
    3       -4.134467e-01
    4       -1.172320e-01
    5       -3.539300e-01
;
param X_true:=
    1        2.243456e-02
    2        7.700191e-01
    3       -1.147889e+00
    4        1.394583e+00
    5       -2.293338e-01
    6        9.789695e-01
    7       -8.754983e-02
    8       -1.043767e+00
    9        4.389575e+00
   10        4.544412e+00
   11        3.196288e-01
   12       -4.133808e-01
   13        2.493082e+00
   14        1.027749e+00
   15        1.949557e+00
   16        5.123565e-01
   17        1.468735e+00
   18       -1.075199e+00
   19        2.026331e+00
   20        4.852227e-01
   21        4.963876e-01
   22       -9.692952e-01
   23       -5.887326e-01
   24       -8.268792e-01
   25       -7.351299e-01
   26       -2.141742e-01
   27       -3.429791e-01
   28        1.044697e+00
   29        4.062461e+00
   30       -3.875396e+00
   31        7.409988e-01
   32        3.981249e+00
   33       -1.322520e+00
   34       -1.208632e-01
   35        1.972924e+00
   36        1.078704e+00
   37        2.447048e+00
   38       -5.762592e-01
   39        1.365644e+00
   40        2.333184e+00
   41       -1.520512e+00
   42        1.318909e+00
   43       -2.172759e+00
   44       -2.694689e-01
   45        8.023591e-01
   46        1.006451e-01
   47       -2.233470e+00
   48       -4.804688e-01
   49       -1.565274e+00
   50       -8.930715e-01
   51       -4.616091e-01
   52        3.524295e-01
   53       -1.458573e+00
   54       -7.769041e-01
   55        3.518790e-01
   56        9.307742e-01
   57        5.783041e-01
   58        1.582254e+00
   59       -1.128590e+00
   60       -1.570112e+00
   61        4.980866e-01
   62       -2.670237e+00
   63       -2.940795e-01
   64        1.826912e-02
   65       -1.138750e+00
   66       -1.456315e+00
   67        1.842731e-01
   68       -4.778939e-01
   69        2.087683e+00
   70       -7.438993e-01
   71       -4.091425e+00
   72       -7.005752e-01
   73       -1.310627e+00
   74        9.147698e-01
   75       -4.795135e-01
   76       -1.083086e+00
   77       -3.152086e+00
   78        7.814489e-01
   79       -1.519168e+00
   80       -1.737954e+00
   81        7.083959e-01
   82        9.006525e-01
   83       -2.224756e+00
   84        1.571517e+00
   85        9.958481e-01
   86        4.576080e-01
   87        2.614046e+00
   88       -6.066468e-01
   89       -2.716629e+00
   90        1.412530e+00
   91        5.553254e-01
   92        1.209991e+00
   93        1.033653e+00
   94       -2.045173e+00
   95        6.228763e-01
   96        1.473370e+00
   97       -2.677674e+00
   98       -1.734062e+00
   99       -3.112323e+00
  100       -9.572757e-01
;
param X:=
    1       -1.065425e+00
    2        9.646020e-01
    3        3.443804e-01
    4        1.394583e+00
    5        1.918766e+00
    6        4.206370e-01
    7       -2.204263e+00
    8       -3.751299e-01
    9       -6.962198e-01
   10       -6.752864e-01
   11        1.635806e+00
   12        4.883278e-01
   13       -1.193168e-01
   14       -6.896858e-01
   15        1.949557e+00
   16        1.034575e+00
   17        2.159556e+00
   18       -1.075199e+00
   19       -5.174743e-01
   20        4.852227e-01
   21        2.854823e-01
   22        9.424266e-01
   23        5.044062e-01
   24       -1.586810e+00
   25       -1.750517e+00
   26       -3.505036e-01
   27        5.303359e-01
   28        6.358578e-01
   29        1.462421e+00
   30       -1.007432e+00
   31        1.024751e+00
   32       -4.283365e-01
   33        1.097646e+00
   34        7.718088e-01
   35       -8.466369e-01
   36        5.882222e-01
   37        3.198886e-01
   38        5.922364e-01
   39        2.515827e-01
   40        2.692569e-02
   41       -1.520512e+00
   42       -1.179103e+00
   43        5.121835e-02
   44        1.311824e+00
   45        8.023591e-01
   46       -1.847389e+00
   47       -1.141224e+00
   48        4.448876e-01
   49        4.661175e-01
   50        2.647507e+00
   51        2.159650e+00
   52       -7.419261e-04
   53       -1.458573e+00
   54       -3.850379e-02
   55        3.518790e-01
   56       -7.556528e-01
   57        5.082744e-01
   58        7.342445e-01
   59        1.461550e+00
   60       -8.636815e-01
   61       -1.275734e+00
   62        1.219439e+00
   63       -1.039143e+00
   64        1.826912e-02
   65        2.974137e-01
   66        2.103260e-01
   67        1.156886e+00
   68        6.485488e-01
   69        1.231565e+00
   70       -3.153756e-01
   71        1.073300e+00
   72        1.537590e+00
   73       -1.310627e+00
   74       -2.879690e-01
   75        5.805988e-02
   76        5.556292e-01
   77       -1.448246e+00
   78        7.814489e-01
   79        2.076235e-01
   80        7.387714e-01
   81        4.440511e-01
   82        7.252152e-01
   83       -2.224756e+00
   84       -1.010466e+00
   85        3.878273e-01
   86        1.537193e+00
   87        4.758026e-01
   88       -8.486257e-02
   89        2.967485e+00
   90        1.412530e+00
   91       -4.845870e-01
   92        5.974542e-01
   93        1.033653e+00
   94       -2.045173e+00
   95        6.228763e-01
   96       -2.663055e-01
   97       -2.677674e+00
   98       -1.734062e+00
   99        3.086050e-01
  100        1.076332e+00
;
param outliervec:=
    1    1
    2    1
    3    1
    4    0
    5    1
    6    1
    7    1
    8    1
    9    1
   10    1
   11    1
   12    1
   13    1
   14    1
   15    0
   16    1
   17    1
   18    0
   19    1
   20    0
   21    1
   22    1
   23    1
   24    1
   25    1
   26    1
   27    1
   28    1
   29    1
   30    1
   31    1
   32    1
   33    1
   34    1
   35    1
   36    1
   37    1
   38    1
   39    1
   40    1
   41    0
   42    1
   43    1
   44    1
   45    0
   46    1
   47    1
   48    1
   49    1
   50    1
   51    1
   52    1
   53    0
   54    1
   55    0
   56    1
   57    1
   58    1
   59    1
   60    1
   61    1
   62    1
   63    1
   64    0
   65    1
   66    1
   67    1
   68    1
   69    1
   70    1
   71    1
   72    1
   73    0
   74    1
   75    1
   76    1
   77    1
   78    0
   79    1
   80    1
   81    1
   82    1
   83    0
   84    1
   85    1
   86    1
   87    1
   88    1
   89    1
   90    0
   91    1
   92    1
   93    0
   94    0
   95    0
   96    1
   97    0
   98    0
   99    1
  100    1
;